# Define units and simulation box
units metal
atom_style atomic
dimension 3
boundary p p p

# Create atoms (example: FCC copper)
lattice fcc 3.615
region box block 0 2 0 2 0 2
create_box 1 box
create_atoms 1 box

# Define potential
pair_style eam/alloy
pair_coeff 		* * /content/Warm-Dense-Matter-2025/lammps-minimal/potential/Cu_zhou.eam.alloy Cu

# Define other simulation parameters (temperature, timestep, etc.)
velocity all create 300 12345
fix 1 all nve
timestep 0.001

# Run the simulation
run 100
